32      4       
13      23      16      17      
0       0       0       0       0       3       2       3       4       
5       0       7       10      0       3       6       18      20      
5       0       7       0       0       3       5       7       9       
10      0       0       7       1       2       13      29      
8       1       0       0       0       2       10      12      
3       0       0       0       8       2       19      26      
4       5       2       0       0       3       8       16      22      
4       9       1       0       9       3       11      15      23      
8       0       7       0       0       3       10      14      18      
4       0       6       8       8       1       31      
5       6       10      0       0       1       17      
6       4       7       8       0       1       31      
10      0       1       0       5       1       24      
1       0       8       0       1       1       28      
3       0       9       10      0       2       17      20      
2       0       10      0       0       1       27      
2       0       10      6       0       1       28      
4       3       0       0       5       1       27      
6       0       4       0       8       1       21      
7       0       8       5       7       1       25      
8       0       5       0       9       2       24      30      
9       7       7       0       0       1       29      
6       2       0       0       0       1       29      
6       0       7       0       0       1       25      
3       0       1       3       9       1       31      
7       0       0       3       0       1       27      
9       3       8       0       0       1       28      
8       2       4       5       5       1       30      
2       1       0       8       8       1       32      
3       0       6       0       5       1       32      
4       4       5       2       0       1       32      
0       0       0       0       0       0       